Route #1: 41 18
Route #2: 33
Route #3: 25 46 40 11 4 21 6 34 58
Route #4: 14
Route #5: 16 20 3
Route #6: 45 42 5 54 10
Route #7: 47 23 35 55 15 39 50 19 38
Route #8: 52 59 7 13 29
Route #9: 48 22 36 1 2 49 30
Route #10: 43 56 12 32 9 51
Route #11: 26 17 27 57 37 8
Route #12: 53 31 28 44 24
cost: 1547.4302408264978
